Test: fpga12_12_sat.cnf
Options: -no-inverting-opt -activity-look-freq=1
WARNING: for repeatability, setting FPU to use double precision
============================[ Problem Statistics ]=============================
|                                                                             |
|  Number of symmetries:           32                                         |
|  Number of invertingSyms:         0                                         |
|  Number of variables:           216                                         |
|  Number of clauses:            1128                                         |
|  Parse time:                   0.00 s                                       |
|                                                                             |
============================[ Search Statistics ]==============================
| Conflicts |          ORIGINAL         |          LEARNT          | Progress |
|           |    Vars  Clauses Literals |    Limit  Clauses Lit/Cl |          |
===============================================================================
|       100 |     216     1128     3096 |      413      295     41 |  0.002 % |
===============================================================================
restarts              : 2
conflicts             : 144            (36000 /sec)
symconflicts          : 73             (18250 /sec)
decisions             : 391            (0.00 % random) (97750 /sec)
propagations          : 8872           (2218000 /sec)
sympropagations       : 273            (68250 /sec)
conflict literals     : 6000           (0.28 % deleted)
literals     : 6000           (0.28 % deleted)

HEURISTIC USAGES
random                : 0           
activity w/ lookahead : 390         
activity no lookahead : 0           
original sp           : 0           
sym count             : 0           

Memory used           : 6.00 MB
CPU time              : 0.004 s

SATISFIABLE
